************************************************************************
file with basedata            : cm211_.bas
initial value random generator: 1771707473
************************************************************************
projects                      :  1
jobs (incl. supersource/sink ):  18
horizon                       :  115
RESOURCES
  - renewable                 :  2   R
  - nonrenewable              :  2   N
  - doubly constrained        :  0   D
************************************************************************
PROJECT INFORMATION:
pronr.  #jobs rel.date duedate tardcost  MPM-Time
    1     16      0       31       15       31
************************************************************************
PRECEDENCE RELATIONS:
jobnr.    #modes  #successors   successors
   1        1          3           2   3   4
   2        2          3           5   6   7
   3        2          3           6   9  13
   4        2          3           6  10  11
   5        2          2           9  14
   6        2          2           8  17
   7        2          2          13  15
   8        2          1          14
   9        2          1          10
  10        2          2          15  16
  11        2          2          12  13
  12        2          2          14  17
  13        2          2          16  17
  14        2          2          15  16
  15        2          1          18
  16        2          1          18
  17        2          1          18
  18        1          0        
************************************************************************
REQUESTS/DURATIONS:
jobnr. mode duration  R 1  R 2  N 1  N 2
------------------------------------------------------------------------
  1      1     0       0    0    0    0
  2      1     1       0    9    0    3
         2     7      10    0    0    1
  3      1     6       9    0    0   10
         2    10       0   10    0   10
  4      1     4       7    0   10    0
         2     6       0    9    0    4
  5      1     1       0    5    8    0
         2     3       0    4    5    0
  6      1     8       2    0    6    0
         2     9       0    7    0    8
  7      1     6       0    3    5    0
         2     9       3    0    4    0
  8      1     3       0    3    0    8
         2    10       4    0    0    3
  9      1     2       2    0    0    6
         2     3       0    6    9    0
 10      1     2       2    0    0    5
         2     9       0    4    0    3
 11      1     4       0    6    9    0
         2     7       0    3    9    0
 12      1     7       0    8    9    0
         2    10       0    6    0    1
 13      1     7       0    3    0    7
         2     8       9    0    3    0
 14      1     7       0    6    5    0
         2     7       0    8    0    6
 15      1     2       4    0    8    0
         2     3       2    0    0    7
 16      1     7       0    7    4    0
         2    10       0    5    0    3
 17      1     1       0    6    0    3
         2     4       0    6    0    2
 18      1     0       0    0    0    0
************************************************************************
RESOURCEAVAILABILITIES:
  R 1  R 2  N 1  N 2
   20   23   47   45
************************************************************************
